0 5040
2 5009
3 4998
4 4922
7 4917
9 4890
12 4817
13 4764
18 4760
24 4745
25 4709
28 4677
35 4668
38 4647
41 4595
45 4579
47 4546
55 4543
63 4523
66 4511
73 4506
84 4495
86 4478
89 4474
90 4451
197 4448
202 4443
203 4438
225 4417
246 4404
265 4396
267 4379
271 4367
283 4353
289 4337
341 4336
363 4334
379 4327
380 4323
388 4311
391 4296
392 4280
420 4275
446 4251
447 4233
451 4229
463 4225
484 4213
541 4191
745 4186
758 4166
770 4146
904 4134
1077 4129
1123 4120
1275 4103
1380 4101
1399 4094
1439 4078
1449 4072
1485 4071
1569 4067
1625 4062
1824 4061
2111 4049
3317 4047
3402 4042
3638 4035
4026 4029
4586 4027
4603 4014
5459 4010
5885 4007
6653 4002
